\ LP format - for model browsing. Use MPS format to capture full model detail.
Minimize
  0 beta
Subject To
 R0: - v_0 + 1000 y_0 <= 1000
 R1: - v_1 + 1000 y_1 <= 1000
 R2: y_0 + y_1 >= 1
 R3: - v_0 + 1000 y_2 <= 1000
 R4: - v_2 + 1000 y_3 <= 1000
 R5: y_2 + y_3 >= 1
 R6: - v_0 + 1000 y_4 <= 1000
 R7: - v_3 + 1000 y_5 <= 1000
 R8: y_4 + y_5 >= 1
 R9: - v_1 + 1000 y_6 <= 1000
 R10: - v_2 + 1000 y_7 <= 1000
 R11: y_6 + y_7 >= 1
 R12: - v_1 + 1000 y_8 <= 1000
 R13: - v_3 + 1000 y_9 <= 1000
 R14: y_8 + y_9 >= 1
 R15: - v_2 + 1000 y_10 <= 1000
 R16: - v_3 + 1000 y_11 <= 1000
 R17: y_10 + y_11 >= 1
 R18: x_0_1 - x_1_0 = 0
 R19: x_0_2 - x_2_0 = 0
 R20: x_0_3 - x_3_0 = 0
 R21: - x_0_1 + x_1_0 = 0
 R22: x_1_2 - x_2_1 = 0
 R23: x_1_3 - x_3_1 = 0
 R24: - x_0_2 + x_2_0 = 0
 R25: - x_1_2 + x_2_1 = 0
 R26: x_2_3 - x_3_2 = 0
 R27: - x_0_3 + x_3_0 = 0
 R28: - x_1_3 + x_3_1 = 0
 R29: - x_2_3 + x_3_2 = 0
 R30: x_0_1 = 1
 R31: - 3 v_0 >= 0
 R32: - 3 v_1 >= 0
 R33: - 3 v_2 >= 0
 R34: - 3 v_3 >= 0
Bounds
 beta >= 1
Binaries
 y_0 y_1 y_2 y_3 y_4 y_5 y_6 y_7 y_8 y_9 y_10 y_11
End
